tools/consynth/Benchmarks/1.smt2
(declare-const t1 Int)
(declare-const t2 Int)
(declare-const t3 Int)
(declare-const t4 Int)
(declare-const t5 Int)
(declare-const t6 Int)
(declare-const t7 Int)
(declare-const t8 Int)
(declare-const t9 Int)
(declare-const t10 Int)
(declare-const t11 Int)
(declare-const t12 Int)
(declare-const t13 Int)
(declare-const t14 Int)
(declare-const t15 Int)
(declare-const t16 Int)
(declare-const t17 Int)
(declare-const t18 Int)
(declare-const t19 Int)
(declare-const t20 Int)
(declare-const t21 Int)
(declare-const t22 Int)
(declare-const t23 Int)
(declare-const t24 Int)
(declare-const t25 Int)
(declare-const t26 Int)
(declare-const t27 Int)
(declare-const t28 Int)
(declare-const t29 Int)
(declare-const t30 Int)
(declare-const t31 Int)
(declare-const t32 Int)
(declare-const t33 Int)
(declare-const t34 Int)
(declare-const t35 Int)
(declare-const t36 Int)
(declare-const t37 Int)
(declare-const t38 Int)
(declare-const t39 Int)
(declare-const t40 Int)
(declare-const t41 Int)
(declare-const t42 Int)
(declare-const t43 Int)
(declare-const t44 Int)
(declare-const t45 Int)
(declare-const t46 Int)
(declare-const t47 Int)
(declare-const t48 Int)
(declare-const t49 Int)
(declare-const t50 Int)
(declare-const t51 Int)
(declare-const t52 Int)
(declare-const t53 Int)
(declare-const t54 Int)
(declare-const t55 Int)
(declare-const t56 Int)
(declare-const t57 Int)
(declare-const t58 Int)
(declare-const t59 Int)
(declare-const t60 Int)
(declare-const t61 Int)
(declare-const t62 Int)
(declare-const t63 Int)
(declare-const t64 Int)
(declare-const t65 Int)
(declare-const t66 Int)
(declare-const t67 Int)
(declare-const t68 Int)
(declare-const t69 Int)
(declare-const t70 Int)
(assert (and true true true (<= (+ (* 7 t70) t69 (* 2 t68) (* 5 t60) (* 6 t59) (* 3 t56) (* 4 t55) t48 t46 t44 t43 (* 3221225494 t40) 1) (+ (* 1073741802 t41) (* t36 t37))) (= (+ t70 (* t7 t37)) 0) (= (+ t69 (* t13 t37)) 0) (= (+ t68 (* t1 t37)) 0) (= (* t28 t37) 0) (= (+ t67 (* t2 t37)) 0) (= (+ t66 (* t3 t37)) 0) (= (+ t65 (* t4 t37)) 0) (= (+ t64 (* t5 t37)) 0) (= (+ t63 (* t6 t37)) 0) (= (+ t62 (* t8 t37)) 0) (= (+ t61 (* t9 t37)) 0) (= (+ t60 (* t25 t37) (* t10 t37)) 0) (= (+ t59 (* t11 t37)) 0) (= (+ t58 (* t12 t37)) 0) (= (+ t57 (* t14 t37)) 0) (= (+ t56 (* t16 t37)) 0) (= (+ t55 (* t17 t37)) 0) (= (+ t54 (* t18 t37)) 0) (= (+ t53 (* t19 t37)) 0) (= (+ t52 (* t21 t37)) 0) (= (+ t51 (* t22 t37)) 0) (= (+ t50 (* t24 t37)) 0) (= t49 0) (= (+ t48 (* t15 t37)) 0) (= (+ t47 (* t29 t37)) 0) (= t46 0) (= (+ t45 (* t23 t37)) 0) (= (* t27 t37) 0) (= (+ t44 (* t20 t37)) 0) (= (+ t43 (* t26 t37)) 0) (= (+ (* t32 t37) (* t31 t37)) 0) (= t42 0) (= (* t35 t37) 0) (= (+ t41 (* t30 t37)) 0) (= (+ t40 (* t33 t37)) 0) (= (+ t39 (* t34 t37)) 0) (= t38 t37) (or (= (+ t37 1) 0) (= t37 1))))
(check-sat)
(get-model)
